*SENSE:Minimize
NAME          MODEL
ROWS
 N  OBJ
 E  C0000000
 G  C0000001
 L  C0000002
 G  C0000003
 L  C0000004
 G  C0000005
 L  C0000006
 E  C0000007
 G  C0000008
 L  C0000009
 G  C0000010
 L  C0000011
 G  C0000012
 L  C0000013
 E  C0000014
 G  C0000015
 L  C0000016
 G  C0000017
 L  C0000018
 G  C0000019
 L  C0000020
 E  C0000021
 G  C0000022
 L  C0000023
 G  C0000024
 L  C0000025
 G  C0000026
 L  C0000027
COLUMNS
    X0000000  C0000000   1.000000000000e+00
    X0000000  OBJ        6.000000000000e+03
    X0000001  C0000007   1.000000000000e+00
    X0000001  OBJ        6.000000000000e+03
    X0000002  C0000014   1.000000000000e+00
    X0000002  OBJ        6.000000000000e+03
    X0000003  C0000021   1.000000000000e+00
    X0000003  OBJ        6.000000000000e+03
    MARK      'MARKER'                 'INTORG'
    X0000004  C0000002  -1.000000000000e+03
    MARK      'MARKER'                 'INTEND'
    MARK      'MARKER'                 'INTORG'
    X0000005  C0000004  -5.500000000000e+02
    MARK      'MARKER'                 'INTEND'
    MARK      'MARKER'                 'INTORG'
    X0000006  C0000005  -1.000000000000e+02
    X0000006  C0000006  -2.000000000000e+02
    MARK      'MARKER'                 'INTEND'
    MARK      'MARKER'                 'INTORG'
    X0000007  C0000009  -1.000000000000e+03
    MARK      'MARKER'                 'INTEND'
    MARK      'MARKER'                 'INTORG'
    X0000008  C0000011  -5.500000000000e+02
    MARK      'MARKER'                 'INTEND'
    MARK      'MARKER'                 'INTORG'
    X0000009  C0000012  -1.000000000000e+02
    X0000009  C0000013  -2.000000000000e+02
    MARK      'MARKER'                 'INTEND'
    MARK      'MARKER'                 'INTORG'
    X0000010  C0000018  -5.500000000000e+02
    MARK      'MARKER'                 'INTEND'
    MARK      'MARKER'                 'INTORG'
    X0000011  C0000019  -1.000000000000e+02
    X0000011  C0000020  -2.000000000000e+02
    MARK      'MARKER'                 'INTEND'
    MARK      'MARKER'                 'INTORG'
    X0000012  C0000023  -1.000000000000e+03
    MARK      'MARKER'                 'INTEND'
    MARK      'MARKER'                 'INTORG'
    X0000013  C0000025  -5.500000000000e+02
    MARK      'MARKER'                 'INTEND'
    MARK      'MARKER'                 'INTORG'
    X0000014  C0000026  -1.000000000000e+02
    X0000014  C0000027  -2.000000000000e+02
    MARK      'MARKER'                 'INTEND'
    X0000015  C0000000   1.000000000000e+00
    X0000015  C0000001   1.000000000000e+00
    X0000015  C0000002   1.000000000000e+00
    X0000015  OBJ        2.000000000000e+01
    X0000016  C0000000   1.000000000000e+00
    X0000016  C0000003   1.000000000000e+00
    X0000016  C0000004   1.000000000000e+00
    X0000016  OBJ        4.400000000000e+01
    X0000017  C0000000   1.000000000000e+00
    X0000017  C0000005   1.000000000000e+00
    X0000017  C0000006   1.000000000000e+00
    X0000017  OBJ        1.000000000000e+02
    X0000018  C0000007   1.000000000000e+00
    X0000018  C0000008   1.000000000000e+00
    X0000018  C0000009   1.000000000000e+00
    X0000018  OBJ        2.000000000000e+01
    X0000019  C0000007   1.000000000000e+00
    X0000019  C0000010   1.000000000000e+00
    X0000019  C0000011   1.000000000000e+00
    X0000019  OBJ        4.400000000000e+01
    X0000020  C0000007   1.000000000000e+00
    X0000020  C0000012   1.000000000000e+00
    X0000020  C0000013   1.000000000000e+00
    X0000020  OBJ        1.000000000000e+02
    X0000021  C0000014   1.000000000000e+00
    X0000021  C0000015   1.000000000000e+00
    X0000021  C0000016   1.000000000000e+00
    X0000021  OBJ        2.000000000000e+01
    X0000022  C0000014   1.000000000000e+00
    X0000022  C0000017   1.000000000000e+00
    X0000022  C0000018   1.000000000000e+00
    X0000022  OBJ        4.400000000000e+01
    X0000023  C0000014   1.000000000000e+00
    X0000023  C0000019   1.000000000000e+00
    X0000023  C0000020   1.000000000000e+00
    X0000023  OBJ        1.000000000000e+02
    X0000024  C0000021   1.000000000000e+00
    X0000024  C0000022   1.000000000000e+00
    X0000024  C0000023   1.000000000000e+00
    X0000024  OBJ        2.000000000000e+01
    X0000025  C0000021   1.000000000000e+00
    X0000025  C0000024   1.000000000000e+00
    X0000025  C0000025   1.000000000000e+00
    X0000025  OBJ        4.400000000000e+01
    X0000026  C0000021   1.000000000000e+00
    X0000026  C0000026   1.000000000000e+00
    X0000026  C0000027   1.000000000000e+00
    X0000026  OBJ        1.000000000000e+02
RHS
    RHS       C0000000   1.000000000000e+03
    RHS       C0000001   0.000000000000e+00
    RHS       C0000002   0.000000000000e+00
    RHS       C0000003   0.000000000000e+00
    RHS       C0000004   0.000000000000e+00
    RHS       C0000005   0.000000000000e+00
    RHS       C0000006   0.000000000000e+00
    RHS       C0000007   1.600000000000e+03
    RHS       C0000008   0.000000000000e+00
    RHS       C0000009   0.000000000000e+00
    RHS       C0000010   0.000000000000e+00
    RHS       C0000011   0.000000000000e+00
    RHS       C0000012   0.000000000000e+00
    RHS       C0000013   0.000000000000e+00
    RHS       C0000014   8.000000000000e+02
    RHS       C0000015   0.000000000000e+00
    RHS       C0000016   0.000000000000e+00
    RHS       C0000017   0.000000000000e+00
    RHS       C0000018   0.000000000000e+00
    RHS       C0000019   0.000000000000e+00
    RHS       C0000020   0.000000000000e+00
    RHS       C0000021   9.000000000000e+02
    RHS       C0000022   0.000000000000e+00
    RHS       C0000023   0.000000000000e+00
    RHS       C0000024   0.000000000000e+00
    RHS       C0000025   0.000000000000e+00
    RHS       C0000026   0.000000000000e+00
    RHS       C0000027   0.000000000000e+00
BOUNDS
 BV BND       X0000004
 BV BND       X0000005
 BV BND       X0000006
 BV BND       X0000007
 BV BND       X0000008
 BV BND       X0000009
 BV BND       X0000010
 BV BND       X0000011
 BV BND       X0000012
 BV BND       X0000013
 BV BND       X0000014
 UP BND       X0000015   1.000000000000e+03
 UP BND       X0000016   5.500000000000e+02
 UP BND       X0000017   2.000000000000e+02
 UP BND       X0000018   1.000000000000e+03
 UP BND       X0000019   5.500000000000e+02
 UP BND       X0000020   2.000000000000e+02
 FX BND       X0000021   0.000000000000e+00
 UP BND       X0000022   5.500000000000e+02
 UP BND       X0000023   2.000000000000e+02
 UP BND       X0000024   1.000000000000e+03
 UP BND       X0000025   5.500000000000e+02
 UP BND       X0000026   2.000000000000e+02
ENDATA
